
Gurobi 12.0.2 (mac64[arm]) logging started Fri Jun 13 14:47:15 2025

Set parameter LogFile to value "/Users/yurunfeng/Documents/GitHub/LRGTS-store-location/result/gurobi/snyder/150nodes/150-0.8-3.log"
Gurobi Optimizer version 12.0.2 build v12.0.2rc0 (mac64[arm] - Darwin 24.5.0 24F74)

CPU model: Apple M4
Thread count: 10 physical cores, 10 logical processors, using up to 10 threads

Non-default parameters:
TimeLimit  1200

Optimize a model with 3510600 rows, 6795450 columns and 32209486 nonzeros
Model fingerprint: 0xa1b19f18
Variable types: 3397650 continuous, 3397800 integer (3397800 binary)
Coefficient statistics:
  Matrix range     [2e-01, 1e+00]
  Objective range  [9e+01, 8e+06]
  Bounds range     [1e+00, 1e+00]
  RHS range        [1e+00, 3e+00]
Found heuristic solution: objective 6.624322e+07
Presolve removed 22800 rows and 22650 columns (presolve time = 5s)...
Presolve removed 22800 rows and 22650 columns (presolve time = 10s)...
Presolve removed 45300 rows and 22650 columns (presolve time = 15s)...
Presolve removed 45300 rows and 22650 columns (presolve time = 21s)...
Presolve removed 45300 rows and 22650 columns (presolve time = 25s)...
Presolve removed 45300 rows and 22650 columns (presolve time = 30s)...
Presolve removed 45300 rows and 22650 columns (presolve time = 40s)...
Presolve removed 45300 rows and 22650 columns (presolve time = 43s)...
Presolve removed 45300 rows and 22650 columns (presolve time = 45s)...
Presolve removed 45300 rows and 22650 columns (presolve time = 50s)...
Presolve removed 45300 rows and 22650 columns (presolve time = 79s)...
Presolve removed 45300 rows and 22650 columns (presolve time = 86s)...
Presolve removed 45300 rows and 22650 columns
Presolve time: 89.90s
Presolved: 3465300 rows, 6772800 columns, 29019035 nonzeros
Variable types: 3375000 continuous, 3397800 integer (3397800 binary)
Deterministic concurrent LP optimizer: primal simplex, dual simplex, and barrier
Showing barrier log only...

Root barrier log...

Elapsed ordering time = 15s
Elapsed ordering time = 15s
Elapsed ordering time = 20s
Elapsed ordering time = 39s
Elapsed ordering time = 41s
Elapsed ordering time = 184s
Elapsed ordering time = 249s
Elapsed ordering time = 312s
Elapsed ordering time = 375s
Ordering time: 374.91s

Barrier performed 0 iterations in 478.39 seconds (290.75 work units)
Barrier solve interrupted - model solved by another algorithm

Concurrent spin time: 355.31s (can be avoided by choosing Method=3)

Solved with dual simplex

Root simplex log...

Iteration    Objective       Primal Inf.    Dual Inf.      Time
   37303    2.4799566e+06   0.000000e+00   0.000000e+00    479s

Root relaxation: objective 2.479957e+06, 37303 iterations, 386.14 seconds (66.82 work units)
Total elapsed time = 480.77s (DegenMoves)

    Nodes    |    Current Node    |     Objective Bounds      |     Work
 Expl Unexpl |  Obj  Depth IntInf | Incumbent    BestBd   Gap | It/Node Time

     0     0 2479956.64    0 3740 6.6243e+07 2479956.64  96.3%     -  495s
H    0     0                    5450498.7124 2479956.64  54.5%     -  555s
H    0     0                    5413229.5371 2479956.64  54.2%     -  598s
     0     0 2525395.80    0 6660 5413229.54 2525395.80  53.3%     - 1006s
     0     0 2525496.38    0 6686 5413229.54 2525496.38  53.3%     - 1034s
     0     0 2525526.15    0 6633 5413229.54 2525526.15  53.3%     - 1059s
H    0     0                    5382231.8752 2525529.94  53.1%     - 1138s
H    0     0                    5382231.6772 2525529.94  53.1%     - 1139s
     0     0 2529345.54    0 6632 5382231.68 2529345.54  53.0%     - 1181s
     0     0          -    0      5382231.68 2529345.54  53.0%     - 1200s

Cutting planes:
  Cover: 2
  MIR: 122
  Flow cover: 609
  RLT: 46

Explored 1 nodes (104136 simplex iterations) in 1201.19 seconds (1359.02 work units)
Thread count was 10 (of 10 available processors)

Solution count 4: 5.38223e+06 5.41323e+06 5.4505e+06 6.62432e+07 

Time limit reached
Best objective 5.382231677271e+06, best bound 2.529345537081e+06, gap 53.0056%
